solution status: time limit reached
objective value:                          51302.61188
y#14                                                1 	(obj:5700)
y#20                                                1 	(obj:5700)
y#26                                                1 	(obj:5700)
y#28                                                1 	(obj:5700)
y#31                                                1 	(obj:5700)
y#32                                                1 	(obj:5700)
y#33                                                1 	(obj:5700)
y#38                                                1 	(obj:5700)
y#39                                                1 	(obj:5700)
x#1#14                                              1 	(obj:0.02176)
x#2#31                                              1 	(obj:0.02754)
x#3#26                                              1 	(obj:0.02023)
x#4#28                                              1 	(obj:0.02295)
x#5#33                                              1 	(obj:0.02057)
x#6#28                                              1 	(obj:0.01564)
x#7#26                                              1 	(obj:0.04454)
x#8#39                                              1 	(obj:0.02567)
x#9#38                                              1 	(obj:0.04794)
x#10#28                                             1 	(obj:0.00918)
x#11#33                                             1 	(obj:0.01343)
x#12#28                                             1 	(obj:0.03791)
x#13#32                                             1 	(obj:0.01054)
x#14#20                                             1 	(obj:0.02975)
x#15#39                                             1 	(obj:0.02635)
x#16#33                                             1 	(obj:0.02652)
x#17#32                                             1 	(obj:0.02516)
x#18#39                                             1 	(obj:0.01751)
x#19#28                                             1 	(obj:0.03281)
x#20#39                                             1 	(obj:0.02006)
x#21#14                                             1 	(obj:0.02142)
x#22#14                                             1 	(obj:0.02091)
x#23#26                                             1 	(obj:0.04998)
x#24#31                                             1 	(obj:0.0306)
x#25#33                                             1 	(obj:0.02414)
x#26#20                                             1 	(obj:0.02142)
x#27#20                                             1 	(obj:0.00357)
x#28#33                                             1 	(obj:0.017)
x#29#33                                             1 	(obj:0.00935)
x#30#33                                             1 	(obj:0.03825)
x#31#14                                             1 	(obj:0.06069)
x#32#32                                             1 	(obj:0.04862)
x#33#28                                             1 	(obj:0.0085)
x#34#32                                             1 	(obj:0.04403)
x#35#20                                             1 	(obj:0.02958)
x#36#14                                             1 	(obj:0.07106)
x#37#28                                             1 	(obj:0.01309)
x#38#32                                             1 	(obj:0.01139)
x#39#33                                             1 	(obj:0.04114)
x#40#32                                             1 	(obj:0.02363)
x#41#38                                             1 	(obj:0.0068)
x#42#31                                             1 	(obj:0.01258)
x#43#26                                             1 	(obj:0.03927)
x#44#31                                             1 	(obj:0.02856)
x#45#31                                             1 	(obj:0.02567)
x#46#39                                             1 	(obj:0.01224)
x#47#20                                             1 	(obj:0.02397)
x#48#39                                             1 	(obj:0.0425)
x#49#20                                             1 	(obj:0.03485)
x#50#38                                             1 	(obj:0.01224)
x#51#39                                             1 	(obj:0.01751)
x#52#28                                             1 	(obj:0.03247)
x#53#38                                             1 	(obj:0.04301)
x#54#32                                             1 	(obj:0.06647)
x#55#14                                             1 	(obj:0.0187)
x#56#38                                             1 	(obj:0.0187)
x#57#26                                             1 	(obj:0.01955)
x#58#33                                             1 	(obj:0.03706)
x#59#31                                             1 	(obj:0.02363)
x#60#20                                             1 	(obj:0.04743)
x#61#14                                             1 	(obj:0.01105)
x#62#38                                             1 	(obj:0.01122)
x#63#31                                             1 	(obj:0.0153)
x#64#38                                             1 	(obj:0.02397)
x#65#33                                             1 	(obj:0.03689)
x#66#39                                             1 	(obj:0.01292)
x#67#31                                             1 	(obj:0.01836)
x#68#28                                             1 	(obj:0.02057)
x#69#38                                             1 	(obj:0.01275)
x#70#14                                             1 	(obj:0.03604)
x#71#20                                             1 	(obj:0.03315)
x#72#14                                             1 	(obj:0.00425)
x#73#14                                             1 	(obj:0.07718)
x#74#32                                             1 	(obj:0.02397)
x#75#26                                             1 	(obj:0.01989)
x#76#26                                             1 	(obj:0.03876)
x#77#32                                             1 	(obj:0.01411)
x#78#20                                             1 	(obj:0.02176)
x#79#31                                             1 	(obj:0.01173)
x#80#31                                             1 	(obj:0.02227)
x#81#28                                             1 	(obj:0.02108)
x#82#26                                             1 	(obj:0.00969)
x#83#20                                             1 	(obj:0.00255)
x#84#26                                             1 	(obj:0.02261)
x#85#32                                             1 	(obj:0.01768)
x#86#28                                             1 	(obj:0.01309)
x#87#33                                             1 	(obj:0.00918)
x#88#26                                             1 	(obj:0.05695)
x#89#33                                             1 	(obj:0.02516)
x#90#39                                             1 	(obj:0.02414)
x#91#14                                             1 	(obj:0.0323)
x#92#26                                             1 	(obj:0.01037)
x#93#32                                             1 	(obj:0.0442)
x#94#28                                             1 	(obj:0.04131)
x#95#32                                             1 	(obj:0.02465)
x#96#39                                             1 	(obj:0.01972)
x#97#31                                             1 	(obj:0.02057)
x#98#38                                             1 	(obj:0.01785)
x#99#20                                             1 	(obj:0.01377)
x#100#39                                            1 	(obj:0.07123)
